; Options: -in -smt2
(set-option :produce-unsat-assumptions true)

(declare-fun start!55476 () Bool)

(assert start!55476)

(declare-fun nBits!535 () (_ BitVec 64))

(declare-fun from!526 () (_ BitVec 64))

(assert (=> start!55476 (and (bvsle #b0000000000000000000000000000000000000000000000000000000000000000 nBits!535) (bvsle nBits!535 #b0000000000000000000000000000001111111111111111111111111111111000) (bvsle #b0000000000000000000000000000000000000000000000000000000000000000 from!526) (bvsle from!526 nBits!535) (not (= (bvand nBits!535 #b1000000000000000000000000000000000000000000000000000000000000000) (bvand from!526 #b1000000000000000000000000000000000000000000000000000000000000000))) (not (= (bvand nBits!535 #b1000000000000000000000000000000000000000000000000000000000000000) (bvand (bvsub nBits!535 from!526) #b1000000000000000000000000000000000000000000000000000000000000000))))))

(assert (=> start!55476 true))

(check-sat)
